min: c;

c = 4.54970495186026 * u3_t10_h0 + 3.48742122635386 * u3_t10_h1 + 3.67235762947983 * u3_t4_h2 + 3.67235762947983 * u3_t10_h2 + 3.07730694076836 * u3_t4_h3 + 3.07730694076836 * u3_t10_h3 + 2.76747191145808 * u3_t4_h4 + 2.76747191145808 * u3_t10_h4 + 3.3611924999809 * u3_t4_h5 + 3.3611924999809 * u3_t10_h5 + 4.3524724566648 * u3_t4_h6 + 4.3524724566648 * u3_t10_h6 + 3.73244539169483 * u3_t4_h7 + 3.73244539169483 * u3_t9_h7 + 3.73244539169483 * u3_t10_h7 + 4.98584124072826 * u3_t4_h8 + 4.98584124072826 * u3_t9_h8 + 4.96937860716815 * u3_t4_h9 + 4.96937860716815 * u3_t9_h9 + 5.78065640298759 * u3_t4_h10 + 5.78065640298759 * u3_t6_h10 + 5.78065640298759 * u3_t9_h10 + 4.02895342668424 * u3_t3_h11 + 4.02895342668424 * u3_t4_h11 + 4.02895342668424 * u3_t6_h11 + 4.02895342668424 * u3_t9_h11 + 6.1746601851145 * u3_t3_h12 + 6.1746601851145 * u3_t4_h12 + 6.1746601851145 * u3_t6_h12 + 6.1746601851145 * u3_t9_h12 + 4.06345088539609 * u3_t3_h13 + 4.06345088539609 * u3_t4_h13 + 4.06345088539609 * u3_t5_h13 + 4.06345088539609 * u3_t6_h13 + 4.06345088539609 * u3_t9_h13 + 5.88204301333634 * u3_t3_h14 + 5.88204301333634 * u3_t4_h14 + 5.88204301333634 * u3_t5_h14 + 5.88204301333634 * u3_t6_h14 + 5.88204301333634 * u3_t9_h14 + 6.50955342053143 * u3_t2_h15 + 6.50955342053143 * u3_t3_h15 + 6.50955342053143 * u3_t4_h15 + 6.50955342053143 * u3_t5_h15 + 6.50955342053143 * u3_t6_h15 + 6.50955342053143 * u3_t9_h15 + 6.23455879581818 * u3_t2_h16 + 6.23455879581818 * u3_t4_h16 + 6.23455879581818 * u3_t5_h16 + 6.23455879581818 * u3_t6_h16 + 6.23455879581818 * u3_t9_h16 + 6.36749647355515 * u3_t2_h17 + 6.36749647355515 * u3_t4_h17 + 6.36749647355515 * u3_t6_h17 + 6.36749647355515 * u3_t9_h17 + 6.4590681783966 * u3_t2_h18 + 6.4590681783966 * u3_t6_h18 + 6.4590681783966 * u3_t9_h18 + 5.15934275392619 * u3_t2_h19 + 5.15934275392619 * u3_t9_h19 + 5.90186708463117 * u3_t1_h20 + 5.90186708463117 * u3_t2_h20 + 5.90186708463117 * u3_t8_h20 + 5.90186708463117 * u3_t9_h20 + 5.71613145453629 * u3_t1_h21 + 5.71613145453629 * u3_t2_h21 + 5.71613145453629 * u3_t7_h21 + 5.71613145453629 * u3_t8_h21 + 5.71613145453629 * u3_t9_h21 + 6.04541410148484 * u3_t1_h22 + 6.04541410148484 * u3_t7_h22 + 6.04541410148484 * u3_t8_h22 + 5.73832398386535 * u3_t1_h23 + 5.73832398386535 * u3_t7_h23 + 5.73832398386535 * u3_t8_h23;
0 <= u3_t1_h20 <= 1;
0 <= u3_t1_h21 <= 1;
0 <= u3_t1_h22 <= 1;
0 <= u3_t1_h23 <= 1;
u3_t1_h20 + u3_t1_h21 + u3_t1_h22 + u3_t1_h23 = 2;
0 <= u3_t2_h15 <= 1;
0 <= u3_t2_h16 <= 1;
0 <= u3_t2_h17 <= 1;
0 <= u3_t2_h18 <= 1;
0 <= u3_t2_h19 <= 1;
0 <= u3_t2_h20 <= 1;
0 <= u3_t2_h21 <= 1;
u3_t2_h15 + u3_t2_h16 + u3_t2_h17 + u3_t2_h18 + u3_t2_h19 + u3_t2_h20 + u3_t2_h21 = 3;
0 <= u3_t3_h11 <= 1;
0 <= u3_t3_h12 <= 1;
0 <= u3_t3_h13 <= 1;
0 <= u3_t3_h14 <= 1;
0 <= u3_t3_h15 <= 1;
u3_t3_h11 + u3_t3_h12 + u3_t3_h13 + u3_t3_h14 + u3_t3_h15 = 2;
0 <= u3_t4_h2 <= 1;
0 <= u3_t4_h3 <= 1;
0 <= u3_t4_h4 <= 1;
0 <= u3_t4_h5 <= 1;
0 <= u3_t4_h6 <= 1;
0 <= u3_t4_h7 <= 1;
0 <= u3_t4_h8 <= 1;
0 <= u3_t4_h9 <= 1;
0 <= u3_t4_h10 <= 1;
0 <= u3_t4_h11 <= 1;
0 <= u3_t4_h12 <= 1;
0 <= u3_t4_h13 <= 1;
0 <= u3_t4_h14 <= 1;
0 <= u3_t4_h15 <= 1;
0 <= u3_t4_h16 <= 1;
0 <= u3_t4_h17 <= 1;
u3_t4_h2 + u3_t4_h3 + u3_t4_h4 + u3_t4_h5 + u3_t4_h6 + u3_t4_h7 + u3_t4_h8 + u3_t4_h9 + u3_t4_h10 + u3_t4_h11 + u3_t4_h12 + u3_t4_h13 + u3_t4_h14 + u3_t4_h15 + u3_t4_h16 + u3_t4_h17 = 3;
0 <= u3_t5_h13 <= 1;
0 <= u3_t5_h14 <= 1;
0 <= u3_t5_h15 <= 1;
0 <= u3_t5_h16 <= 1;
u3_t5_h13 + u3_t5_h14 + u3_t5_h15 + u3_t5_h16 = 2;
0 <= u3_t6_h10 <= 1;
0 <= u3_t6_h11 <= 1;
0 <= u3_t6_h12 <= 1;
0 <= u3_t6_h13 <= 1;
0 <= u3_t6_h14 <= 1;
0 <= u3_t6_h15 <= 1;
0 <= u3_t6_h16 <= 1;
0 <= u3_t6_h17 <= 1;
0 <= u3_t6_h18 <= 1;
u3_t6_h10 + u3_t6_h11 + u3_t6_h12 + u3_t6_h13 + u3_t6_h14 + u3_t6_h15 + u3_t6_h16 + u3_t6_h17 + u3_t6_h18 = 2;
0 <= u3_t7_h21 <= 1;
0 <= u3_t7_h22 <= 1;
0 <= u3_t7_h23 <= 1;
u3_t7_h21 + u3_t7_h22 + u3_t7_h23 = 2;
0 <= u3_t8_h20 <= 1;
0 <= u3_t8_h21 <= 1;
0 <= u3_t8_h22 <= 1;
0 <= u3_t8_h23 <= 1;
u3_t8_h20 + u3_t8_h21 + u3_t8_h22 + u3_t8_h23 = 1;
0 <= u3_t9_h7 <= 1;
0 <= u3_t9_h8 <= 1;
0 <= u3_t9_h9 <= 1;
0 <= u3_t9_h10 <= 1;
0 <= u3_t9_h11 <= 1;
0 <= u3_t9_h12 <= 1;
0 <= u3_t9_h13 <= 1;
0 <= u3_t9_h14 <= 1;
0 <= u3_t9_h15 <= 1;
0 <= u3_t9_h16 <= 1;
0 <= u3_t9_h17 <= 1;
0 <= u3_t9_h18 <= 1;
0 <= u3_t9_h19 <= 1;
0 <= u3_t9_h20 <= 1;
0 <= u3_t9_h21 <= 1;
u3_t9_h7 + u3_t9_h8 + u3_t9_h9 + u3_t9_h10 + u3_t9_h11 + u3_t9_h12 + u3_t9_h13 + u3_t9_h14 + u3_t9_h15 + u3_t9_h16 + u3_t9_h17 + u3_t9_h18 + u3_t9_h19 + u3_t9_h20 + u3_t9_h21 = 2;
0 <= u3_t10_h0 <= 1;
0 <= u3_t10_h1 <= 1;
0 <= u3_t10_h2 <= 1;
0 <= u3_t10_h3 <= 1;
0 <= u3_t10_h4 <= 1;
0 <= u3_t10_h5 <= 1;
0 <= u3_t10_h6 <= 1;
0 <= u3_t10_h7 <= 1;
u3_t10_h0 + u3_t10_h1 + u3_t10_h2 + u3_t10_h3 + u3_t10_h4 + u3_t10_h5 + u3_t10_h6 + u3_t10_h7 = 3;
